NAME : N101P3.748.tour
COMMENT : Cost = 0_748
COMMENT : Found by LKH [Keld Helsgaun] Sun Sep 17 15:52:35 2017
TYPE : TOUR
DIMENSION : 101
TOUR_SECTION
1
96
26
33
35
23
66
71
32
59
50
5
77
98
101
20
60
22
36
86
83
47
62
3
30
39
11
10
14
85
48
57
89
99
46
43
88
4
53
65
7
9
25
90
70
95
15
55
79
19
80
37
49
16
28
97
73
87
18
78
24
74
40
12
93
91
92
44
56
31
42
100
8
81
45
6
52
34
75
27
41
58
68
64
17
29
82
51
2
76
13
38
67
54
63
94
72
69
84
21
61
-1
EOF
